Input: tic-14crafa.fixed040-Forb.dzn
============================================================
Total Runtime: 0.4590 seconds
Input parsing: 0.0036 seconds
Constraint building: 0.2190 seconds
MaxSAT solving: 0.0576 seconds
============================================================

Total variables: 77361
Total clauses: 166719
MaxSAT found with cost: N/A
NO SOLUTION FOUND
